db/data/153141715261331733304016738654912869.z3.out
-------------------
2500.152867853
